************************************************************************
file with basedata            : mm6_.bas
initial value random generator: 21996
************************************************************************
projects                      :  1
jobs (incl. supersource/sink ):  12
horizon                       :  83
RESOURCES
  - renewable                 :  2   R
  - nonrenewable              :  2   N
  - doubly constrained        :  0   D
************************************************************************
PROJECT INFORMATION:
pronr.  #jobs rel.date duedate tardcost  MPM-Time
    1     10      0       16        2       16
************************************************************************
PRECEDENCE RELATIONS:
jobnr.    #modes  #successors   successors
   1        1          3           2   3   4
   2        3          1           9
   3        3          3           5   6   8
   4        3          2           7   8
   5        3          1          11
   6        3          1           7
   7        3          3           9  10  11
   8        3          1          10
   9        3          1          12
  10        3          1          12
  11        3          1          12
  12        1          0        
************************************************************************
REQUESTS/DURATIONS:
jobnr. mode duration  R 1  R 2  N 1  N 2
------------------------------------------------------------------------
  1      1     0       0    0    0    0
  2      1     4       9    0    5    9
         2     6       0    5    4    9
         3     9       2    0    4    8
  3      1     1       3    0    9    1
         2     5       0    8    6    1
         3    10       0    3    6    1
  4      1     3       0    3    3    6
         2     4       5    0    3    6
         3     7       3    0    3    6
  5      1     1       0    9   10    6
         2     3       0    7    9    6
         3     3       0    7   10    2
  6      1     3       2    0    6   10
         2     4       2    0    3    9
         3     9       0    7    1    8
  7      1     4       0    4    5    3
         2     4       8    0    5    3
         3     7       7    0    4    3
  8      1     1       0    9    8    7
         2     4       3    0    8    4
         3    10       0    5    8    3
  9      1     1       5    0    8    9
         2     6       4    0    7    7
         3     9       3    0    5    7
 10      1     2       3    0    6    5
         2     9       0    5    4    4
         3    10       0    3    3    4
 11      1     8       6    0    8    7
         2     9       0    3    7    5
         3     9       5    0    8    4
 12      1     0       0    0    0    0
************************************************************************
RESOURCEAVAILABILITIES:
  R 1  R 2  N 1  N 2
    6   12   59   55
************************************************************************
MAXIMAL LAGS:
from  to  type  delay
    1   12   ES      0
    1    2   ES      0
    2   12   ES      0
    1    3   ES      0
    3   12   ES      0
    1    4   ES      0
    4   12   ES      0
    1    5   ES      0
    5   12   ES      0
    1    6   ES      0
    6   12   ES      0
    1    7   ES      0
    7   12   ES      0
    1    8   ES      0
    8   12   ES      0
    1    9   ES      0
    9   12   ES      0
    1   10   ES      0
   10   12   ES      0
    1   11   ES      0
   11   12   ES      0
    1   12   ES      0
    2    9   SS      9
    2    9   SE     11
    2    9   ES      4
    2    9   EE     12
    3    5   SS      2
    3    5   SE     -5
    3    5   ES     -6
    3    5   EE      7
    3    6   SS     11
    3    6   SE     11
    3    6   ES     -6
    3    6   EE    -11
    3    8   SS     -3
    3    8   SE      6
    3    8   ES     -6
    3    8   EE      1
    4    7   SS      0
    4    7   SE     -2
    4    7   ES     -6
    4    7   EE      5
    4    8   SS    -12
    4    8   SE      9
    4    8   ES     -7
    4    8   EE      2
    5   11   SS      8
    5   11   SE      9
    5   11   ES     -3
    5   11   EE     12
    6    7   SS      4
    6    7   SE     -9
    6    7   ES     -8
    6    7   EE     12
    7    9   SS     -3
    7    9   SE     -7
    7    9   ES     -9
    7    9   EE    -10
    7   10   SS     -3
    7   10   SE    -12
    7   10   ES      5
    7   10   EE      9
    7   11   SS      0
    7   11   SE      8
    7   11   ES      4
    7   11   EE     -8
    8   10   SS     -2
    8   10   SE    -12
    8   10   ES      6
    8   10   EE      9
************************************************************************
